p edge 29 212
e 1 20
e 1 26
e 1 2
e 1 6
e 1 2
e 1 6
e 1 20
e 1 26
e 2 4
e 2 11
e 2 4
e 2 11
e 3 14
e 3 10
e 3 4
e 3 5
e 3 13
e 3 19
e 3 22
e 3 4
e 3 5
e 3 10
e 3 13
e 3 14
e 3 19
e 3 22
e 4 11
e 4 5
e 4 16
e 4 29
e 4 5
e 4 11
e 4 16
e 4 29
e 5 8
e 5 16
e 5 9
e 5 27
e 5 8
e 5 9
e 5 16
e 5 27
e 6 10
e 6 11
e 6 13
e 6 24
e 6 7
e 6 8
e 6 9
e 6 7
e 6 8
e 6 9
e 6 10
e 6 11
e 6 13
e 6 24
e 7 16
e 7 25
e 7 8
e 7 9
e 7 10
e 7 8
e 7 9
e 7 10
e 7 16
e 7 25
e 8 16
e 8 9
e 8 26
e 8 9
e 8 16
e 8 26
e 9 14
e 9 21
e 9 22
e 9 27
e 9 14
e 9 21
e 9 22
e 9 27
e 10 11
e 10 13
e 10 24
e 10 11
e 10 13
e 10 24
e 11 13
e 11 24
e 11 12
e 11 15
e 11 18
e 11 12
e 11 13
e 11 15
e 11 18
e 11 24
e 12 13
e 12 14
e 12 15
e 12 18
e 12 13
e 12 14
e 12 15
e 12 18
e 13 24
e 13 15
e 13 14
e 13 19
e 13 22
e 13 14
e 13 15
e 13 19
e 13 22
e 13 24
e 14 21
e 14 22
e 14 17
e 14 20
e 14 24
e 14 17
e 14 20
e 14 21
e 14 22
e 14 24
e 15 19
e 15 21
e 15 16
e 15 17
e 15 18
e 15 16
e 15 17
e 15 18
e 15 19
e 15 21
e 16 25
e 16 17
e 16 29
e 16 17
e 16 25
e 16 29
e 17 27
e 17 23
e 17 20
e 17 24
e 17 20
e 17 23
e 17 24
e 17 27
e 18 23
e 18 29
e 18 19
e 18 20
e 18 19
e 18 20
e 18 23
e 18 29
e 19 21
e 19 20
e 19 22
e 19 20
e 19 21
e 19 22
e 20 26
e 20 28
e 20 24
e 20 24
e 20 26
e 20 28
e 21 22
e 21 23
e 21 28
e 21 22
e 21 23
e 21 28
e 22 28
e 22 23
e 22 24
e 22 25
e 22 26
e 22 27
e 22 23
e 22 24
e 22 25
e 22 26
e 22 27
e 22 28
e 23 29
e 23 24
e 23 25
e 23 26
e 23 27
e 23 28
e 23 24
e 23 25
e 23 26
e 23 27
e 23 28
e 23 29
e 24 25
e 24 26
e 24 27
e 24 25
e 24 26
e 24 27
e 25 26
e 25 27
e 25 26
e 25 27
e 26 27
e 26 27
e 28 29
e 28 29
